&CONTROL
  calculation = 'scf'
  outdir = './out/'
  prefix = 'aiida'
  pseudo_dir = './pseudo/'
  restart_mode = 'from_scratch'
  verbosity = 'high'
  wf_collect = .true.
/
&SYSTEM
  ecutrho =   2.4000000000d+02
  ecutwfc =   3.0000000000d+01
  ibrav = 0
  nat = 5
  ntyp = 3
/
&ELECTRONS
  conv_thr =   1.0000000000d-12
/
ATOMIC_SPECIES
Ba     137.33 Ba.pbesol-spn-rrkjus_psl.0.2.3-tot-pslib030.UPF
Ti     47.88 Ti.pbesol-spn-rrkjus_psl.0.2.3-tot-pslib030.UPF
O      15.9994 O.pbesol-n-rrkjus_psl.0.1-tested-pslib030.UPF
ATOMIC_POSITIONS angstrom
Ba           0.2088607595       0.0000000000       0.0000000000 
Ti           2.2088607595       2.0000000000       2.0000000000 
O            2.2088607595       2.0000000000       0.0000000000 
O            2.2088607595       0.0000000000       2.0000000000 
O            0.2088607595       2.0000000000       2.0000000000 
K_POINTS automatic
4 4 4 0 0 0
CELL_PARAMETERS angstrom
      4.0000000000       0.0000000000       0.0000000000
      0.0000000000       4.0000000000       0.0000000000
      0.0000000000       0.0000000000       4.0000000000
