&control
   calculation = 'scf'
   restart_mode='from_scratch',
   prefix='False_False_gamma_angstrom_crystal',
   pseudo_dir = '/Users/ehontz/bin/espresso/pseudo/',
   outdir='./tmp'

/

&system
    ibrav           = 0, 
    
    nat             = 4, ntyp= 1, occupations   ='fixed'

    smearing        = 'methfessel-paxton'
    degauss         = 0.02

    ecutwfc         = 30.0
    ecutrho         = 180.0
    
/

&electrons
    conv_thr        = 1.0d-5
/

ATOMIC_SPECIES
C   12.00   C.pbe-rrkjus.UPF

ATOMIC_POSITIONS crystal
C  0.0000000  0.0000000  0.0000000
C  0.3333335  0.6666670  0.0000000
C  0.0000000  0.0000000  0.5000000
C  0.6666667  0.3333335  0.5000000
    
CELL_PARAMETERS  angstrom
 2.4560016  0.0000000  0.0000000
-1.2280008  2.1269588  0.0000000
 0.0000000  0.0000000  6.6960428  
K_POINTS gamma
 
