&control
   calculation = 'scf'
   restart_mode='from_scratch',
   prefix='False_False_crystal_angstrom_bohr',
   pseudo_dir = '/Users/ehontz/bin/espresso/pseudo/',
   outdir='./tmp'

/

&system
    ibrav           = 0, 
    
    nat             = 4, ntyp= 1, occupations   ='fixed'

    smearing        = 'methfessel-paxton'
    degauss         = 0.02

    ecutwfc         = 30.0
    ecutrho         = 180.0
    
/

&electrons
    conv_thr        = 1.0d-5
/

ATOMIC_SPECIES
C   12.00   C.pbe-rrkjus.UPF

ATOMIC_POSITIONS bohr
C  0.0000000  0.0000000  0.0000000
C  0.0000000  2.6795807  0.0000000
C  0.0000000  0.0000000  6.3268429
C  2.3205850  1.3397904  6.3268429
    
CELL_PARAMETERS  angstrom
 2.4560016  0.0000000  0.0000000
-1.2280008  2.1269588  0.0000000
 0.0000000  0.0000000  6.6960428  
K_POINTS crystal
15
 0.0000000  0.0000000  0.0000000 1.0
 0.2500000  0.0000000  0.0000000 1.0
 0.5000000  0.0000000  0.0000000 5.0
 0.3333333  0.3333333  0.0000000 2.0
 0.1666667  0.1666667  0.0000000 2.0
 0.0000000  0.0000000  0.0000000 4.0
 0.0000000  0.0000000  0.2500000 4.0
 0.0000000  0.0000000  0.5000000 1.0
 0.5000000  0.0000000  0.5000000 5.0
 0.3333333  0.3333333  0.5000000 2.0
 0.0000000  0.0000000  0.5000000 4.0
 0.5000000  0.0000000  0.5000000 5.0
 0.5000000  0.0000000  0.0000000 2.0
 0.3333333  0.3333333  0.0000000 4.0
 0.3333333  0.3333333  0.5000000 2.0
