&control
   calculation = 'scf'
   restart_mode='from_scratch',
   prefix='False_False_unspecified_bohr_alat',
   pseudo_dir = '/Users/ehontz/bin/espresso/pseudo/',
   outdir='./tmp'

/

&system
    ibrav           = 0, 
    
    nat             = 4, ntyp= 1, occupations   ='fixed'

    smearing        = 'methfessel-paxton'
    degauss         = 0.02

    ecutwfc         = 30.0
    ecutrho         = 180.0
    
/

&electrons
    conv_thr        = 1.0d-5
/

ATOMIC_SPECIES
C   12.00   C.pbe-rrkjus.UPF

ATOMIC_POSITIONS alat
C  0.0000000  0.0000000  0.0000000
C  0.0000000  0.5773503  0.0000000
C  0.0000000  0.0000000  1.3632000
C  0.5000000  0.2886751  1.3632000
    
CELL_PARAMETERS  bohr
 4.6411700  0.0000000  0.0000000
-2.3205850  4.0193692  0.0000000
 0.0000000  0.0000000  12.6536859  
K_POINTS  
15
 0.0000000  0.0000000  0.0000000 1.0
 0.2500000  0.1443376  0.0000000 1.0
 0.5000000  0.2886753  0.0000000 5.0
 0.3333333  0.5773505  0.0000000 2.0
 0.1666667  0.2886753  0.0000000 2.0
 0.0000000  0.0000000  0.0000000 4.0
 0.0000000  0.0000000  0.0916960 4.0
 0.0000000  0.0000000  0.1833920 1.0
 0.5000000  0.2886753  0.1833920 5.0
 0.3333333  0.5773505  0.1833920 2.0
 0.0000000  0.0000000  0.1833920 4.0
 0.5000000  0.2886753  0.1833920 5.0
 0.5000000  0.2886753  0.0000000 2.0
 0.3333333  0.5773505  0.0000000 4.0
 0.3333333  0.5773505  0.1833920 2.0
