&control
   calculation = 'scf'
   restart_mode='from_scratch',
   prefix='True_False_tpiba_unspecified_bohr',
   pseudo_dir = '/Users/ehontz/bin/espresso/pseudo/',
   outdir='./tmp'

/

&system
    ibrav           = 0, A = 2.456001612223375207832987143774516880512237548828125000000000000000000000000
    
    nat             = 4, ntyp= 1, occupations   ='fixed'

    smearing        = 'methfessel-paxton'
    degauss         = 0.02

    ecutwfc         = 30.0
    ecutrho         = 180.0
    
/

&electrons
    conv_thr        = 1.0d-5
/

ATOMIC_SPECIES
C   12.00   C.pbe-rrkjus.UPF

ATOMIC_POSITIONS bohr
C  0.0000000  0.0000000  0.0000000
C  0.0000000  2.6795807  0.0000000
C  0.0000000  0.0000000  6.3268429
C  2.3205850  1.3397904  6.3268429
    
CELL_PARAMETERS   
 1.0000000  0.0000000  0.0000000
-0.5000000  0.8660250  0.0000000
 0.0000000  0.0000000  2.7264000  
K_POINTS tpiba
15
 0.0000000  0.0000000  0.0000000 1.0
 0.2500000  0.1443376  0.0000000 1.0
 0.5000000  0.2886753  0.0000000 5.0
 0.3333333  0.5773505  0.0000000 2.0
 0.1666667  0.2886753  0.0000000 2.0
 0.0000000  0.0000000  0.0000000 4.0
 0.0000000  0.0000000  0.0916960 4.0
 0.0000000  0.0000000  0.1833920 1.0
 0.5000000  0.2886753  0.1833920 5.0
 0.3333333  0.5773505  0.1833920 2.0
 0.0000000  0.0000000  0.1833920 4.0
 0.5000000  0.2886753  0.1833920 5.0
 0.5000000  0.2886753  0.0000000 2.0
 0.3333333  0.5773505  0.0000000 4.0
 0.3333333  0.5773505  0.1833920 2.0
