&CONTROL
  calculation = 'bands'
  forc_conv_thr =   5.0000000000d-05
  max_seconds = 10185
  outdir = './out/'
  prefix = 'aiida'
  pseudo_dir = './pseudo/'
  restart_mode = 'restart'
  tprnfor = .true.
  tstress = .true.
  verbosity = 'high'
/
&SYSTEM
  ecutrho =   3.2000000000d+02
  ecutwfc =   4.0000000000d+01
  ibrav = 0
  nat = 4
  nbnd = 14
  ntyp = 1
/
&ELECTRONS
  conv_thr =   1.0000000000d-08
  diago_full_acc = .true.
  diagonalization = 'cg'
  electron_maxstep = 200
  mixing_beta =   5.0000000000d-01
  mixing_mode = 'plain'
/
ATOMIC_SPECIES
As     74.9216 As.pbe-n-rrkjus_psl.0.2.UPF
ATOMIC_POSITIONS angstrom
As           2.1172055338       2.7060619070       9.3073340733 
As           1.0543559485       0.9020206359      10.6926659602 
As           5.2887670679       0.9020206359       9.3073340398 
As           4.2259174826       2.7060619070      10.6926659267 
K_POINTS crystal
49
        0.3058500000       0.3058500000       0.3558500000       1.0000000000
        0.3058500000       0.3058500000       0.3558500000       1.0000000000
        0.3058500000       0.3058500000       0.3558500000       1.0000000000
        0.3058500000       0.3058500000       0.3558500000       1.0000000000
        0.3058500000       0.3058500000       0.3558500000       1.0000000000
        0.3058500000       0.3058500000       0.3558500000       1.0000000000
        0.3058500000       0.3058500000       0.3558500000       1.0000000000
        0.3225166667       0.3225166667       0.3558500000       1.0000000000
        0.3225166667       0.3225166667       0.3558500000       1.0000000000
        0.3225166667       0.3225166667       0.3558500000       1.0000000000
        0.3225166667       0.3225166667       0.3558500000       1.0000000000
        0.3225166667       0.3225166667       0.3558500000       1.0000000000
        0.3225166667       0.3225166667       0.3558500000       1.0000000000
        0.3225166667       0.3225166667       0.3558500000       1.0000000000
        0.3391833333       0.3391833333       0.3558500000       1.0000000000
        0.3391833333       0.3391833333       0.3558500000       1.0000000000
        0.3391833333       0.3391833333       0.3558500000       1.0000000000
        0.3391833333       0.3391833333       0.3558500000       1.0000000000
        0.3391833333       0.3391833333       0.3558500000       1.0000000000
        0.3391833333       0.3391833333       0.3558500000       1.0000000000
        0.3391833333       0.3391833333       0.3558500000       1.0000000000
        0.3558500000       0.3558500000       0.3558500000       1.0000000000
        0.3558500000       0.3558500000       0.3558500000       1.0000000000
        0.3558500000       0.3558500000       0.3558500000       1.0000000000
        0.3558500000       0.3558500000       0.3558500000       1.0000000000
        0.3558500000       0.3558500000       0.3558500000       1.0000000000
        0.3558500000       0.3558500000       0.3558500000       1.0000000000
        0.3558500000       0.3558500000       0.3558500000       1.0000000000
        0.3725166667       0.3725166667       0.3558500000       1.0000000000
        0.3725166667       0.3725166667       0.3558500000       1.0000000000
        0.3725166667       0.3725166667       0.3558500000       1.0000000000
        0.3725166667       0.3725166667       0.3558500000       1.0000000000
        0.3725166667       0.3725166667       0.3558500000       1.0000000000
        0.3725166667       0.3725166667       0.3558500000       1.0000000000
        0.3725166667       0.3725166667       0.3558500000       1.0000000000
        0.3891833333       0.3891833333       0.3558500000       1.0000000000
        0.3891833333       0.3891833333       0.3558500000       1.0000000000
        0.3891833333       0.3891833333       0.3558500000       1.0000000000
        0.3891833333       0.3891833333       0.3558500000       1.0000000000
        0.3891833333       0.3891833333       0.3558500000       1.0000000000
        0.3891833333       0.3891833333       0.3558500000       1.0000000000
        0.3891833333       0.3891833333       0.3558500000       1.0000000000
        0.4058500000       0.4058500000       0.3558500000       1.0000000000
        0.4058500000       0.4058500000       0.3558500000       1.0000000000
        0.4058500000       0.4058500000       0.3558500000       1.0000000000
        0.4058500000       0.4058500000       0.3558500000       1.0000000000
        0.4058500000       0.4058500000       0.3558500000       1.0000000000
        0.4058500000       0.4058500000       0.3558500000       1.0000000000
        0.4058500000       0.4058500000       0.3558500000       1.0000000000
CELL_PARAMETERS angstrom
      6.3431230164       0.0000000000       0.0000000000
      0.0000000000       3.6080825429       0.0000000000
      0.0000000000       0.0000000000      20.0000000000
