&CONTROL
  calculation = 'vc-relax'
  etot_conv_thr =   1.0000000000d-03
  forc_conv_thr =   1.0000000000d-02
  max_seconds = 24444
  outdir = './out/'
  prefix = 'aiida'
  pseudo_dir = './pseudo/'
  restart_mode = 'from_scratch'
  verbosity = 'high'
/
&SYSTEM
  degauss =   2.0000000000d-02
  ecutrho = 120
  ecutwfc = 30
  ibrav = 0
  nat = 28
  nspin = 2
  ntyp = 5
  occupations = 'smearing'
  smearing = 'gaussian'
  starting_magnetization(1) =   4.8000000000d-01
  starting_magnetization(2) =  -9.5000000000d-01
  starting_magnetization(3) =   5.4000000000d-01
  starting_magnetization(4) =  -5.4000000000d-01
  starting_magnetization(5) =   6.7000000000d-01
/
&ELECTRONS
  conv_thr =   1.0000000000d-10
/
&IONS
/
&CELL
  cell_dofree = '2Dxy'
/
ATOMIC_SPECIES
C      12.011 c_pbesol_v1.2.uspp.F.UPF
Fe     55.847 fe_pbesol_v1.2.uspp.F.UPF
K      39.0983 k_pbesol_v1.uspp.F.UPF
N      14.0067 n_pbesol_v1.2.uspp.F.UPF
O      15.9994 o_pbesol_v1.2.uspp.F.UPF
ATOMIC_POSITIONS angstrom
O            5.3637171248       1.6823257611      19.9347424076 
O            4.6369142138       0.2422966374      30.0072837966 
O            4.1387954089       3.8945371856      30.0072837966 
O            2.5282921501       3.8039524083      19.9347424076 
O            2.1086220636       0.2875890260      19.9347424076 
O            1.2249217159       1.6370333724      30.0072837966 
N            5.4661562376       1.7966270981      26.6013154961 
N            4.5344751010       0.1279953004      23.3407107081 
N            4.2890028269       3.8629729801      23.3407107081 
N            2.3780847321       3.8355166137      26.6013154961 
N            2.1563903688       0.1417234835      26.6013154961 
N            1.1771534107       1.7828989150      23.3407107081 
K            6.6670875590       0.0000000000      25.0087020727 
K            3.3335437795       1.9246223985      24.9333241315 
Fe           6.6670875590       3.8492447969      28.5252746643 
Fe           6.6670875590       3.8492447969      21.4167515399 
C            8.1972669383       3.8233581031      20.5046229355 
C            8.1391444900       3.8363152877      27.3399589358 
C            7.4545957831       5.1614756648      29.4374032687 
C            7.4143133080       5.1176187403      22.6020672684 
C            7.4097587142       2.5111272353      29.4374032687 
C            7.3919187410       2.5679413442      22.6020672684 
C            5.9422563771       5.1305482496      27.3399589358 
C            5.9244164038       5.1873623586      20.5046229355 
C            5.9198618101       2.5808708535      27.3399589358 
C            5.8795793350       2.5370139291      20.5046229355 
C            5.1950306281       3.8621743062      22.6020672684 
C            5.1369081798       3.8751314907      29.4374032687 
K_POINTS automatic
6 6 1 0 0 0
CELL_PARAMETERS angstrom
      6.6670875590       0.0000000000       0.0000000000
     -3.3335437795       5.7738671954       0.0000000000
      0.0000000000       0.0000000000      49.9420262042
