&CONTROL
  calculation  = "relax",
  prefix       = "CO",
  pseudo_dir   = "./pseudo",
  outdir       = "./out",
/
&SYSTEM
  ibrav     = 0,
  nat       = 2,
  ntyp      = 2,
  ecutwfc   = 24.D0,
  ecutrho   = 144.D0,
/
&ELECTRONS
  conv_thr    = 1.D-7,
  mixing_beta = 0.7D0,
/
&IONS
/
CELL_PARAMETERS bohr
12.0  0.0  0.0
 0.0 12.0  0.0
 0.0  0.0 12.0
ATOMIC_SPECIES
O  1.00  O.pz-rrkjus.UPF
C  1.00  C.pz-rrkjus.UPF
ATOMIC_POSITIONS {bohr}
C  2.256  0.0  0.0
O  0.000  0.0  0.0  0 0 0
K_POINTS {Gamma}
