&control
   calculation = 'scf'
   restart_mode='from_scratch',
   prefix='False_True_gamma_unspecified_alat',
   pseudo_dir = '/Users/ehontz/bin/espresso/pseudo/',
   outdir='./tmp'

/

&system
    ibrav           = 0, Celldm(1) = 4.6411700
    
    nat             = 4, ntyp= 1, occupations   ='fixed'

    smearing        = 'methfessel-paxton'
    degauss         = 0.02

    ecutwfc         = 30.0
    ecutrho         = 180.0
    
/

&electrons
    conv_thr        = 1.0d-5
/

ATOMIC_SPECIES
C   12.00   C.pbe-rrkjus.UPF

ATOMIC_POSITIONS alat
C  0.0000000  0.0000000  0.0000000
C  0.0000000  0.5773503  0.0000000
C  0.0000000  0.0000000  1.3632000
C  0.5000000  0.2886751  1.3632000
    
CELL_PARAMETERS   
 1.0000000  0.0000000  0.0000000
-0.5000000  0.8660250  0.0000000
 0.0000000  0.0000000  2.7264000  
K_POINTS gamma
 
